Version identifier: 22.1.0.0 | 2022-03-09 | 1a383f8ce
CPXPARAM_Read_DataCheck                          1
CPXPARAM_TimeLimit                               600
Tried aggregator 3 times.
MIP Presolve eliminated 80306 rows and 7317 columns.
MIP Presolve modified 973 coefficients.
Aggregator did 74310 substitutions.
Reduced MIP has 8230 rows, 76377 columns, and 161119 nonzeros.
Reduced MIP has 76341 binaries, 36 generals, 0 SOSs, and 0 indicators.
Presolve time = 0.93 sec. (910.88 ticks)
Tried aggregator 1 time.
Detecting symmetries...
Reduced MIP has 8230 rows, 76377 columns, and 161119 nonzeros.
Reduced MIP has 76341 binaries, 36 generals, 0 SOSs, and 0 indicators.
Presolve time = 0.16 sec. (120.80 ticks)
Probing fixed 54 vars, tightened 0 bounds.
Probing changed sense of 13 constraints.
Probing time = 0.20 sec. (20.89 ticks)
Clique table members: 154825.
MIP emphasis: balance optimality and feasibility.
MIP search method: dynamic search.
Parallel mode: deterministic, using up to 8 threads.
Root relaxation solution time = 1.45 sec. (598.08 ticks)

        Nodes                                         Cuts/
   Node  Left     Objective  IInf  Best Integer    Best Bound    ItCnt     Gap

      0     0       36.3670  6008                     36.3670       24         
      0     0       56.0000  1031                    Cuts: 38    14756         
      0     0       56.0000   819                    Cuts: 74    22605         
      0     0       56.0000   881                    Cuts: 48    33001         
*     0+    0                           66.0000       56.0000            15.15%
      0     0       56.0000   917       66.0000  ZeroHalf: 43    42945   15.15%
*     0+    0                           64.0000       56.0000            12.50%
Heuristic still looking.
Heuristic still looking.
*     0+    0                           63.0000       56.0000            11.11%
      0     0  -1.00000e+75     0       63.0000       56.0000    42945   11.11%
      0     2       56.0000   917       63.0000       56.0000    42945   11.11%
Elapsed time = 178.76 sec. (104267.60 ticks, tree = 0.02 MB, solutions = 3)
      1     3       56.0000   817       63.0000       56.0000    52116   11.11%
      2     3       56.0000   680       63.0000       56.0000    53826   11.11%
      3     4       56.0000   705       63.0000       56.0000    58466   11.11%
      4     5       56.0000   619       63.0000       56.0000    71447   11.11%
      5     4       56.0000   703       63.0000       56.0000    59014   11.11%
      6     5       56.0000   673       63.0000       56.0000    70251   11.11%
      7     6       56.0000   664       63.0000       56.0000    77745   11.11%
      9    10       56.0000   733       63.0000       56.0000   107521   11.11%
     11    13       56.0000   827       63.0000       56.0000   146034   11.11%
     15     8       56.0000   691       63.0000       56.0000    89828   11.11%
Elapsed time = 292.42 sec. (132737.65 ticks, tree = 0.02 MB, solutions = 3)
     19    16       56.0000   830       63.0000       56.0000   159654   11.11%
     24    16       56.0000  1361       63.0000       56.0000   159192   11.11%
     31    17       56.0000  1492       63.0000       56.0000   169081   11.11%
     32    18       56.0000  1417       63.0000       56.0000   177538   11.11%
     35    19       56.0000   739       63.0000       56.0000   179934   11.11%
     37    18       56.0000   620       63.0000       56.0000   161420   11.11%
     40    26       56.0000   950       63.0000       56.0000   240668   11.11%
     44    19       56.0000   905       63.0000       56.0000   173568   11.11%
     50    29       56.0000   829       63.0000       56.0000   289299   11.11%
*    57+    5                           62.0000       56.0000             9.68%
     58    42       56.0000   769       62.0000       56.0000   387930    9.68%
Elapsed time = 354.56 sec. (144992.32 ticks, tree = 1.02 MB, solutions = 4)
     62    37       56.0000   902       62.0000       56.0000   354361    9.68%
     70    35       56.0000   973       62.0000       56.0000   359021    9.68%
     74    17       56.0175   827       62.0000       56.0000   172810    9.68%
     80    61       56.0000   817       62.0000       56.0000   650464    9.68%
     84    44       56.0000   751       62.0000       56.0000   442528    9.68%
     90    60       56.0000   801       62.0000       56.0000   567972    9.68%
     96    51       56.0000   746       62.0000       56.0000   500672    9.68%
    109    95       56.0417   706       62.0000       56.0000  1005648    9.68%
    116    92       56.0000   751       62.0000       56.0000  1019528    9.68%
    123    89       56.3333   681       62.0000       56.0000   946173    9.68%
Elapsed time = 433.75 sec. (155978.60 ticks, tree = 1.36 MB, solutions = 4)
    130    92       56.0000   785       62.0000       56.0000  1058884    9.68%
    136    94       56.0000  1042       62.0000       56.0000  1074706    9.68%
    141    95       56.0000   928       62.0000       56.0000  1091892    9.68%
    145   101       56.0000   897       62.0000       56.0000  1124114    9.68%
    150    97       56.0417   804       62.0000       56.0000  1114950    9.68%
    153   141       56.0787   992       62.0000       56.0000  1617862    9.68%
    158   132       56.0000  1506       62.0000       56.0000  1327624    9.68%
    161   120       56.0000   823       62.0000       56.0000  1260131    9.68%
    166   140       56.0000   643       62.0000       56.0000  1496230    9.68%
    169   144       56.3958   958       62.0000       56.0000  1745502    9.68%
Elapsed time = 516.45 sec. (168238.25 ticks, tree = 2.31 MB, solutions = 4)
    174   153       56.0000   706       62.0000       56.0000  1859692    9.68%
    177    94       56.0323  1018       62.0000       56.0000  1131203    9.68%
    180   168       56.3333   663       62.0000       56.0000  2075343    9.68%
    186   172       56.3333   573       62.0000       56.0000  2079918    9.68%
    191   165       56.0000   646       62.0000       56.0000  2033921    9.68%
    200   177       56.0000   664       62.0000       56.0000  2249725    9.68%
    206   180       56.3333   461       62.0000       56.0000  2269726    9.68%
    215   181       56.0000   618       62.0000       56.0000  2261531    9.68%
    226   210       56.0000   567       62.0000       56.0000  2410995    9.68%
    237   193       56.0417   580       62.0000       56.0000  2366217    9.68%
Elapsed time = 596.03 sec. (180191.13 ticks, tree = 2.86 MB, solutions = 4)
    251   196       56.0417   553       62.0000       56.0000  2370340    9.68%

Zero-half cuts applied:  112
Lift and project cuts applied:  2
Gomory fractional cuts applied:  23

Root node processing (before b&c):
  Real time             =  178.49 sec. (104189.12 ticks)
Parallel b&c, 8 threads:
  Real time             =  421.60 sec. (77936.53 ticks)
  Sync time (average)   =   97.58 sec.
  Wait time (average)   =    0.00 sec.
                          ------------
Total (root+branch&cut) =  600.09 sec. (182125.65 ticks)
